p cnf 21 11
e 1 2 3 4 5 0
a 6 7 8 9 0
e 10 11 0
a 12 13 0
e 14 0
a 15 0
e 16 0
a 17 0
e 18 19 0
a 20 21 0
20 -3 4 18 0
-4 -13 21 -14 0
-18 -6 0
5 -9 18 12 0
16 -12 -17 -5 -20 0
20 21 -15 0
-6 -1 -14 20 7 0
16 -13 -19 5 0
-6 -21 -7 0
16 -13 0
-9 -12 18 10 0
